mixintcount/benchmarks/random_v2l/6_6_3548.in
24 8
#	x1	x2	x3	x4	x5	x6;		0 = Real; 1 = Integer
	1	1	1	1	1	1
1	2	6	-4	-5	3	5	466
1	3	2	-10	-6	5	-10	-1822
1	0	-7	-5	-1	-5	-5	-2565
1	-1	6	7	-5	5	10	-299
1	-7	3	-6	3	-4	0	-1581
1	10	-7	-4	2	5	-4	-1453
1	-2	-6	-10	8	-5	-7	1358
1	-2	-1	-3	7	-8	-6	1387
1	7	-9	-2	9	5	3	1713
1	9	-10	-3	8	-9	3	-2799
1	7	7	-8	-8	9	-10	-2384
1	-6	-8	-8	2	1	-1	2203
1	1	0	0	0	0	0	3548
1	-1	0	0	0	0	0	3548
1	0	1	0	0	0	0	3548
1	0	-1	0	0	0	0	3548
1	0	0	1	0	0	0	3548
1	0	0	-1	0	0	0	3548
1	0	0	0	1	0	0	3548
1	0	0	0	-1	0	0	3548
1	0	0	0	0	1	0	3548
1	0	0	0	0	-1	0	3548
1	0	0	0	0	0	1	3548
1	0	0	0	0	0	-1	3548
